CMPL model generation - running

CMPL version: 1.11.0
Authors: Thomas Schleiff, Mike Steglich
Distributed under the GPLv3 

create model instance ...
write model instance ...
CMPL model generation - finished

Solver - running


Welcome to IBM(R) ILOG(R) CPLEX(R) Interactive Optimizer 12.7.1.0
  with Simplex, Mixed Integer & Barrier Optimizers
5725-A06 5725-A29 5724-Y48 5724-Y49 5724-Y54 5724-Y55 5655-Y21
Copyright IBM Corp. 1988, 2017.  All Rights Reserved.

Type 'help' for a list of available commands.
Type 'help' followed by a command name for more
information on commands.

CPLEX> Specified objective sense: MINIMIZE
Selected objective  name:  line[1]
Selected RHS        name:  RHS
Selected bound      name:  BOUND
Problem '/tmp/cmpl.T24819.mps' read.
Read time = 0.15 sec. (10.15 ticks)
CPLEX> CPXPARAM_Read_APIEncoding                        "UTF-8"
Tried aggregator 3 times.
MIP Presolve eliminated 23652 rows and 36880 columns.
MIP Presolve modified 425 coefficients.
Aggregator did 1085 substitutions.
Reduced MIP has 3185 rows, 4490 columns, and 13284 nonzeros.
Reduced MIP has 4280 binaries, 0 generals, 0 SOSs, and 0 indicators.
Presolve time = 0.09 sec. (51.09 ticks)
Found incumbent of value 3410.667090 after 0.17 sec. (94.85 ticks)
Probing time = 0.01 sec. (2.88 ticks)
Tried aggregator 1 time.
MIP Presolve eliminated 0 rows and 3 columns.
Reduced MIP has 3185 rows, 4487 columns, and 13278 nonzeros.
Reduced MIP has 4487 binaries, 0 generals, 0 SOSs, and 0 indicators.
Presolve time = 0.01 sec. (10.87 ticks)
Probing time = 0.01 sec. (2.96 ticks)
Clique table members: 4065.
MIP emphasis: balance optimality and feasibility.
MIP search method: dynamic search.
Parallel mode: none, using 1 thread.
Root relaxation solution time = 0.01 sec. (12.51 ticks)

        Nodes                                         Cuts/
   Node  Left     Objective  IInf  Best Integer    Best Bound    ItCnt     Gap

*     0+    0                         3410.6671        0.0000           100.00%
*     0     0      integral     0      868.8988      868.8988      661    0.00%
Elapsed time = 0.23 sec. (133.11 ticks, tree = 0.00 MB, solutions = 2)

Root node processing (before b&c):
  Real time             =    0.23 sec. (134.71 ticks)
Sequential b&c:
  Real time             =    0.00 sec. (0.00 ticks)
                          ------------
Total (root+branch&cut) =    0.23 sec. (134.71 ticks)

Solution pool: 2 solutions saved.

MIP - Integer optimal solution:  Objective =  8.6889875200e+02
Solution time =    0.23 sec.  Iterations = 661  Nodes = 0
Deterministic time = 134.83 ticks  (578.56 ticks/sec)

CPLEX> Incumbent solution written to file '/tmp/cmpl.T24819.gsol'.
CPLEX> 
CMPL: Time used for model generation: 2 seconds
CMPL: Time used for solving the model: 1 seconds


Solution written to ASCII file: results/output_generated_conf_0.9/2017-10-02-5/fair-nonlinear.sol

Solver - finished
